243/surrogate_problem/sol/surrogate2_19.sol
# Solution for model problem_
# Objective value = 1.5777646987107626e+05
x(0_0) 0
x(0_1) 0
x(0_2) 0
x(0_3) 0
x(0_4) 0
x(0_5) 0
x(0_6) 0
x(0_7) 0
x(0_8) 0
x(0_9) 0
x(0_10) 1
x(0_11) 0
x(0_12) 0
x(0_13) 0
x(0_14) 0
x(0_15) 0
x(0_16) 0
x(0_17) 0
x(1_18) 0
x(1_19) 0
x(1_20) 0
x(1_21) 0
x(1_22) 0
x(1_23) 0
x(1_24) 1
x(1_25) 0
x(1_26) 0
x(1_27) 0
x(1_28) 0
x(1_29) 0
x(1_30) 0
x(1_31) 0
x(1_32) 0
x(1_33) 0
x(2_34) 0
x(2_35) 0
x(2_36) 0
x(2_37) 0
x(2_38) 0
x(2_39) 0
x(2_40) 0
x(2_41) 0
x(2_42) 0
x(2_43) 0
x(2_44) 1
x(2_45) 0
x(2_46) 0
x(3_47) 0
x(3_48) 0
x(3_49) 0
x(3_50) 0
x(3_51) 0
x(3_52) 0
x(3_53) 0
x(3_54) 0
x(3_55) 0
x(3_56) 0
x(3_57) 1
x(3_58) 0
x(3_59) 0
x(3_60) 0
x(3_61) 0
x(3_62) 0
x(3_63) 0
x(3_64) 0
x(3_65) 0
x(3_66) 0
x(4_67) 0
x(4_68) 0
x(4_69) 0
x(4_70) 0
x(4_71) 0
x(4_72) 0
x(4_73) 0
x(4_74) 0
x(4_75) 0
x(4_76) 0
x(4_77) 0
x(4_78) 1
x(4_79) 0
x(5_80) 0
x(5_81) 0
x(5_82) 0
x(5_83) 0
x(5_84) 0
x(5_85) 0
x(5_86) 0
x(5_87) 0
x(5_88) 0
x(5_89) 0
x(5_90) 0
x(5_91) 0
x(5_92) 1
x(5_93) 0
x(5_94) 0
x(5_95) 0
x(5_96) 0
x(5_97) 0
x(5_98) 0
x(6_99) 0
x(6_100) 0
x(6_101) 0
x(6_102) 0
x(6_103) 0
x(6_104) 0
x(6_105) 0
x(6_106) 0
x(6_107) 0
x(6_108) 0
x(6_109) 0
x(6_110) 0
x(6_111) 0
x(6_112) 1
x(7_113) 0
x(7_114) 0
x(7_115) 0
x(7_116) 0
x(7_117) 0
x(7_118) 0
x(7_119) 0
x(7_120) 0
x(7_121) 1
x(7_122) 0
x(7_123) 0
x(7_124) 0
x(7_125) 0
x(7_126) 0
x(7_127) 0
x(7_128) 0
x(7_129) 0
x(7_130) 0
x(8_131) 0
x(8_132) 0
x(8_133) 0
x(8_134) 0
x(8_135) 0
x(8_136) 1
x(8_137) 0
x(8_138) 0
x(8_139) 0
x(8_140) 0
x(8_141) 0
x(8_142) 0
x(8_143) 0
x(8_144) 0
x(9_145) 0
x(9_146) 0
x(9_147) 0
x(9_148) 0
x(9_149) 0
x(9_150) 1
x(9_151) 0
x(9_152) 0
x(9_153) 0
x(9_154) 0
x(9_155) 0
x(10_156) 0
x(10_157) 0
x(10_158) 0
x(10_159) 0
x(10_160) 0
x(10_161) 0
x(10_162) 1
x(10_163) 0
x(10_164) 0
x(10_165) 0
x(10_166) 0
x(11_167) 0
x(11_168) 0
x(11_169) 1
x(11_170) 0
x(11_171) 0
x(11_172) 0
x(11_173) 0
x(11_174) 0
x(11_175) 0
x(11_176) 0
x(11_177) 0
x(12_178) 1
x(12_179) 0
x(12_180) 0
x(12_181) 0
x(12_182) 0
x(12_183) 0
x(12_184) 0
x(12_185) 0
x(12_186) 0
x(12_187) 0
x(12_188) 0
x(12_189) 0
x(12_190) 0
x(13_191) 0
x(13_192) 0
x(13_193) 1
x(13_194) 0
x(13_195) 0
x(13_196) 0
x(13_197) 0
x(13_198) 0
x(13_199) 0
x(13_200) 0
x(13_201) 0
x(13_202) 0
x(13_203) 0
x(13_204) 0
x(13_205) 0
x(13_206) 0
x(13_207) 0
x(13_208) 0
x(13_209) 0
x(14_210) 0
x(14_211) 0
x(14_212) 0
x(14_213) 0
x(14_214) 0
x(14_215) 0
x(14_216) 0
x(14_217) 0
x(14_218) 0
x(14_219) 0
x(14_220) 0
x(14_221) 1
x(14_222) 0
x(14_223) 0
x(15_224) 0
x(15_225) 0
x(15_226) 0
x(15_227) 0
x(15_228) 0
x(15_229) 0
x(15_230) 0
x(15_231) 0
x(15_232) 0
x(15_233) 0
x(15_234) 0
x(15_235) 0
x(15_236) 0
x(15_237) 0
x(15_238) 1
x(15_239) 0
x(15_240) 0
x(16_241) 0
x(16_242) 0
x(16_243) 0
x(16_244) 0
x(16_245) 0
x(16_246) 0
x(16_247) 0
x(16_248) 0
x(16_249) 0
x(16_250) 1
x(16_251) 0
x(16_252) 0
x(16_253) 0
x(16_254) 0
x(16_255) 0
x(16_256) 0
x(16_257) 0
x(16_258) 0
x(16_259) 0
x(17_260) 0
x(17_261) 0
x(17_262) 0
x(17_263) 0
x(17_264) 0
x(17_265) 0
x(17_266) 0
x(17_267) 0
x(17_268) 0
x(17_269) 1
x(17_270) 0
x(17_271) 0
x(17_272) 0
x(17_273) 0
x(18_274) 1
x(18_275) 0
x(18_276) 0
x(18_277) 0
x(18_278) 0
x(18_279) 0
x(18_280) 0
x(18_281) 0
x(18_282) 0
x(18_283) 0
x(18_284) 0
x(19_285) 0
x(19_286) 0
x(19_287) 0
x(19_288) 0
x(19_289) 0
x(19_290) 0
x(19_291) 0
x(19_292) 1
x(19_293) 0
x(19_294) 0
x(19_295) 0
x(19_296) 0
x(20_297) 0
x(20_298) 0
x(20_299) 1
x(20_300) 0
x(20_301) 0
x(20_302) 0
x(20_303) 0
x(20_304) 0
x(20_305) 0
x(20_306) 0
x(20_307) 0
x(20_308) 0
x(20_309) 0
x(20_310) 0
x(20_311) 0
x(20_312) 0
x(20_313) 0
x(20_314) 0
x(21_315) 0
x(21_316) 0
x(21_317) 0
x(21_318) 0
x(21_319) 0
x(21_320) 0
x(21_321) 0
x(21_322) 0
x(21_323) 0
x(21_324) 0
x(21_325) 1
x(21_326) 0
x(21_327) 0
x(21_328) 0
x(22_329) 0
x(22_330) 0
x(22_331) 0
x(22_332) 0
x(22_333) 0
x(22_334) 0
x(22_335) 0
x(22_336) 0
x(22_337) 0
x(22_338) 0
x(22_339) 0
x(22_340) 0
x(22_341) 0
x(22_342) 0
x(22_343) 0
x(22_344) 0
x(22_345) 1
x(22_346) 0
x(22_347) 0
x(22_348) 0
x(23_349) 0
x(23_350) 0
x(23_351) 0
x(23_352) 0
x(23_353) 0
x(23_354) 0
x(23_355) 0
x(23_356) 0
x(23_357) 0
x(23_358) 0
x(23_359) 0
x(23_360) 1
x(23_361) 0
x(23_362) 0
x(24_363) 0
x(24_364) 0
x(24_365) 0
x(24_366) 0
x(24_367) 1
x(24_368) 0
x(24_369) 0
x(24_370) 0
x(24_371) 0
x(24_372) 0
x(24_373) 0
x(24_374) 0
x(24_375) 0
x(24_376) 0
x(24_377) 0
x(25_378) 0
x(25_379) 0
x(25_380) 0
x(25_381) 0
x(25_382) 1
x(25_383) 0
x(25_384) 0
x(25_385) 0
x(25_386) 0
x(25_387) 0
x(25_388) 0
x(26_389) 0
x(26_390) 0
x(26_391) 0
x(26_392) 0
x(26_393) 0
x(26_394) 0
x(26_395) 0
x(26_396) 1
x(26_397) 0
x(26_398) 0
x(26_399) 0
x(26_400) 0
x(26_401) 0
x(27_402) 0
x(27_403) 0
x(27_404) 0
x(27_405) 0
x(27_406) 0
x(27_407) 0
x(27_408) 1
x(27_409) 0
x(27_410) 0
x(27_411) 0
x(28_412) 1
x(28_413) 0
x(28_414) 0
x(28_415) 0
x(28_416) 0
x(28_417) 0
x(28_418) 0
x(28_419) 0
x(28_420) 0
x(28_421) 0
x(28_422) 0
x(28_423) 0
x(28_424) 0
x(28_425) 0
x(28_426) 0
x(28_427) 0
x(28_428) 0
x(28_429) 0
x(28_430) 0
x(28_431) 0
x(29_432) 0
x(29_433) 0
x(29_434) 0
x(29_435) 0
x(29_436) 0
x(29_437) 0
x(29_438) 0
x(29_439) 0
x(29_440) 0
x(29_441) 0
x(29_442) 0
x(29_443) 0
x(29_444) 0
x(29_445) 0
x(29_446) 1
x(29_447) 0
x(30_448) 0
x(30_449) 0
x(30_450) 0
x(30_451) 0
x(30_452) 0
x(30_453) 0
x(30_454) 0
x(30_455) 0
x(30_456) 0
x(30_457) 0
x(30_458) 0
x(30_459) 1
x(30_460) 0
x(30_461) 0
x(30_462) 0
x(30_463) 0
x(30_464) 0
x(30_465) 0
x(30_466) 0
x(31_467) 0
x(31_468) 0
x(31_469) 0
x(31_470) 0
x(31_471) 0
x(31_472) 0
x(31_473) 0
x(31_474) 0
x(31_475) 0
x(31_476) 0
x(31_477) 0
x(31_478) 0
x(31_479) 0
x(31_480) 0
x(31_481) 0
x(31_482) 1
x(31_483) 0
x(31_484) 0
x(31_485) 0
x(32_486) 1
x(32_487) 0
x(32_488) 0
x(32_489) 0
x(32_490) 0
x(32_491) 0
x(32_492) 0
x(32_493) 0
x(32_494) 0
x(32_495) 0
x(32_496) 0
x(32_497) 0
x(32_498) 0
x(32_499) 0
x(33_500) 0
x(33_501) 0
x(33_502) 0
x(33_503) 0
x(33_504) 0
x(33_505) 0
x(33_506) 0
x(33_507) 0
x(33_508) 1
x(33_509) 0
x(33_510) 0
x(33_511) 0
x(34_512) 0
x(34_513) 0
x(34_514) 0
x(34_515) 0
x(34_516) 0
x(34_517) 1
x(34_518) 0
x(34_519) 0
x(34_520) 0
x(34_521) 0
x(35_522) 0
x(35_523) 1
x(35_524) 0
x(35_525) 0
x(35_526) 0
x(35_527) 0
x(35_528) 0
x(35_529) 0
x(35_530) 0
x(35_531) 0
x(35_532) 0
x(35_533) 0
x(35_534) 0
x(35_535) 0
x(36_536) 0
x(36_537) 0
x(36_538) 0
x(36_539) 0
x(36_540) 0
x(36_541) 0
x(36_542) 0
x(36_543) 0
x(36_544) 0
x(36_545) 0
x(36_546) 0
x(36_547) 1
x(36_548) 0
x(36_549) 0
x(37_550) 0
x(37_551) 1
x(37_552) 0
x(37_553) 0
x(37_554) 0
x(37_555) 0
x(37_556) 0
x(37_557) 0
x(37_558) 0
x(37_559) 0
x(38_560) 0
x(38_561) 0
x(38_562) 0
x(38_563) 0
x(38_564) 0
x(38_565) 0
x(38_566) 0
x(38_567) 0
x(38_568) 0
x(38_569) 0
x(38_570) 0
x(38_571) 0
x(38_572) 1
x(38_573) 0
x(38_574) 0
x(39_575) 0
x(39_576) 1
x(39_577) 0
x(39_578) 0
x(39_579) 0
x(39_580) 0
x(39_581) 0
x(39_582) 0
x(39_583) 0
x(39_584) 0
x(39_585) 0
x(39_586) 0
x(39_587) 0
x(40_588) 0
x(40_589) 0
x(40_590) 0
x(40_591) 0
x(40_592) 0
x(40_593) 0
x(40_594) 0
x(40_595) 0
x(40_596) 0
x(40_597) 0
x(40_598) 0
x(40_599) 0
x(40_600) 0
x(40_601) 1
x(40_602) 0
x(40_603) 0
x(40_604) 0
x(40_605) 0
x(40_606) 0
x(40_607) 0
x(41_608) 0
x(41_609) 0
x(41_610) 0
x(41_611) 0
x(41_612) 0
x(41_613) 0
x(41_614) 1
x(41_615) 0
x(41_616) 0
x(41_617) 0
x(42_618) 0
x(42_619) 0
x(42_620) 0
x(42_621) 0
x(42_622) 0
x(42_623) 0
x(42_624) 0
x(42_625) 0
x(42_626) 0
x(42_627) 0
x(42_628) 0
x(42_629) 0
x(42_630) 1
x(42_631) 0
x(42_632) 0
x(43_633) 0
x(43_634) 0
x(43_635) 0
x(43_636) 0
x(43_637) 1
x(43_638) 0
x(43_639) 0
x(43_640) 0
x(43_641) 0
x(43_642) 0
x(43_643) 0
x(44_644) 0
x(44_645) 0
x(44_646) 0
x(44_647) 0
x(44_648) 0
x(44_649) 0
x(44_650) 0
x(44_651) 0
x(44_652) 0
x(44_653) 0
x(44_654) 1
x(44_655) 0
x(44_656) 0
x(44_657) 0
x(44_658) 0
x(44_659) 0
x(44_660) 0
x(44_661) 0
x(45_662) 0
x(45_663) 0
x(45_664) 0
x(45_665) 0
x(45_666) 0
x(45_667) 0
x(45_668) 0
x(45_669) 0
x(45_670) 0
x(45_671) 1
x(45_672) 0
x(45_673) 0
x_1_0 0
s_1_0 1.0240264163476240e+00
z_1_0 1
x_1_1 2.3047037166357040e+02
s_1_1 0
z_1_1 0
x_1_2 2.3086674563027918e+02
s_1_2 0
z_1_2 0
x_1_3 2.3197350523434579e+02
s_1_3 0
z_1_3 0
x_1_4 2.3261429318785667e+02
s_1_4 0
z_1_4 0
x_1_5 2.3248977182060480e+02
s_1_5 0
z_1_5 0
x_1_6 2.3170459921658039e+02
s_1_6 0
z_1_6 0
x_1_7 2.3072338064759970e+02
s_1_7 0
z_1_7 0
x_1_8 0
s_1_8 6.3326271309051663e-01
z_1_8 1
x_1_9 0
s_1_9 4.2491871886886656e-01
z_1_9 1
x_1_10 0
s_1_10 1.0361322030512383e+00
z_1_10 1
x_1_11 2.3152583100646734e+02
s_1_11 0
z_1_11 0
x_1_12 2.3199026850456721e+02
s_1_12 0
z_1_12 0
x_1_13 0
s_1_13 8.2893022627104074e-01
z_1_13 1
x_1_14 2.3198769328976050e+02
s_1_14 0
z_1_14 0
x_1_15 2.2694597214087844e+02
s_1_15 0
z_1_15 0
x_1_16 0
s_1_16 0.856983850884717
z_1_16 1
x_1_17 2.3013747535832226e+02
s_1_17 0
z_1_17 0
x_1_18 0
s_1_18 8.9623086650681216e-01
z_1_18 1
x_1_19 0
s_1_19 1.1423419876955450e+00
z_1_19 1
x_1_20 2.3354387119505554e+02
s_1_20 0
z_1_20 0
x_1_21 0
s_1_21 6.2551665294449776e-01
z_1_21 1
x_1_22 2.3304523237101967e+02
s_1_22 0
z_1_22 0
x_1_23 2.3047665151208639e+02
s_1_23 0
z_1_23 0
x_1_24 2.3294403177313507e+02
s_1_24 0
z_1_24 0
x_1_25 0
s_1_25 7.6304867857834324e-01
z_1_25 1
x_1_26 2.3062428711587563e+02
s_1_26 0
z_1_26 0
x_1_27 2.3072833143826574e+02
s_1_27 0
z_1_27 0
x_1_28 2.3246043405309319e+02
s_1_28 0
z_1_28 0
x_1_29 2.3260772204771638e+02
s_1_29 0
z_1_29 0
x_1_30 2.3290331654250622e+02
s_1_30 0
z_1_30 0
x_1_31 0
s_1_31 5.0099093024618924e-01
z_1_31 1
x_1_32 2.3079747220175341e+02
s_1_32 0
z_1_32 0
x_1_33 0
s_1_33 6.4968592525110580e-01
z_1_33 1
x_1_34 0
s_1_34 0.492733248451259
z_1_34 1
x_1_35 0
s_1_35 0.597130408976227
z_1_35 1
x_1_36 232.825704369694
s_1_36 0
z_1_36 0
x_1_37 2.3287044889852405e+02
s_1_37 0
z_1_37 0
x_1_38 0
s_1_38 1.1802593329339288e+00
z_1_38 1
x_1_39 2.3058327386341989e+02
s_1_39 0
z_1_39 0
x_1_40 2.3288463094830513e+02
s_1_40 0
z_1_40 0
x_1_41 2.3265355301555246e+02
s_1_41 0
z_1_41 0
x_1_42 0
s_1_42 8.4884713019710034e-01
z_1_42 1
x_1_43 0
s_1_43 1.2410740323830396e+00
z_1_43 1
x_1_44 2.3055933262594044e+02
s_1_44 0
z_1_44 0
x_1_45 2.3306017495458946e+02
s_1_45 0
z_1_45 0
x_1_46 2.3098477662727237e+02
s_1_46 0
z_1_46 0
x_1_47 2.3143104886915535e+02
s_1_47 0
z_1_47 0
x_1_48 2.3270274545531720e+02
s_1_48 0
z_1_48 0
x_1_49 0
s_1_49 6.5266483911545947e-01
z_1_49 1
x_1_50 0
s_1_50 8.2472076099656988e-01
z_1_50 1
x_1_51 2.3272078887932003e+02
s_1_51 0
z_1_51 0
x_1_52 2.3223392292601056e+02
s_1_52 0
z_1_52 0
x_1_53 2.3202944025769830e+02
s_1_53 0
z_1_53 0
x_1_54 0
s_1_54 9.5158412354066968e-01
z_1_54 1
x_1_55 0
s_1_55 1.1603137097554281e+00
z_1_55 1
x_1_56 2.3299898720532656e+02
s_1_56 0
z_1_56 0
x_1_57 0
s_1_57 0.846599348820746
z_1_57 1
x_1_58 2.3162474168464541e+02
s_1_58 0
z_1_58 0
x_1_59 2.2867960667423904e+02
s_1_59 0
z_1_59 0
x_1_60 0
s_1_60 1.3186007506737951e+00
z_1_60 1
x_1_61 2.3291987383365631e+02
s_1_61 0
z_1_61 0
x_1_62 0
s_1_62 5.7309194607660174e-01
z_1_62 1
x_1_63 0
s_1_63 1.0792466372913623e+00
z_1_63 1
x_1_64 2.3194460107618943e+02
s_1_64 0
z_1_64 0
x_1_65 232.627986215055
s_1_65 0
z_1_65 0
x_1_66 2.3335236159712076e+02
s_1_66 0
z_1_66 0
x_1_67 2.3206051766872406e+02
s_1_67 0
z_1_67 0
x_1_68 2.2817831219919026e+02
s_1_68 0
z_1_68 0
x_1_69 2.3297082632407546e+02
s_1_69 0
z_1_69 0
x_1_70 2.3212145083770156e+02
s_1_70 0
z_1_70 0
x_1_71 0
s_1_71 9.1675861546536908e-01
z_1_71 1
x_1_72 2.3317164863971993e+02
s_1_72 0
z_1_72 0
x_1_73 0
s_1_73 8.9351097390408540e-01
z_1_73 1
x_1_74 0
s_1_74 8.1255593686364591e-01
z_1_74 1
x_1_75 2.3147976101189852e+02
s_1_75 0
z_1_75 0
x_1_76 2.3037000092305243e+02
s_1_76 0
z_1_76 0
x_1_77 2.3275963812321424e+02
s_1_77 0
z_1_77 0
x_1_78 2.3240620087459683e+02
s_1_78 0
z_1_78 0
x_1_79 0
s_1_79 7.1640938147902489e-01
z_1_79 1
x_1_80 0
s_1_80 8.0036026937887073e-01
z_1_80 1
x_1_81 2.3205918658152223e+02
s_1_81 0
z_1_81 0
x_1_82 2.3149151420965791e+02
s_1_82 0
z_1_82 0
x_1_83 0
s_1_83 3.3834811381530017e-01
z_1_83 1
x_1_84 0
s_1_84 1.0751682021655142e+00
z_1_84 1
x_1_85 2.3256729722954333e+02
s_1_85 0
z_1_85 0
x_1_86 0
s_1_86 5.4261575554482988e-01
z_1_86 1
x_1_87 0
s_1_87 4.9960019346326590e-01
z_1_87 1
x_1_88 2.3113850735407323e+02
s_1_88 0
z_1_88 0
x_1_89 2.3288945543766022e+02
s_1_89 0
z_1_89 0
x_1_90 2.3351399930194020e+02
s_1_90 0
z_1_90 0
x_1_91 0
s_1_91 6.1396650282404153e-01
z_1_91 1
x_1_92 2.3110333767835982e+02
s_1_92 0
z_1_92 0
x_1_93 0
s_1_93 9.7299413342261687e-01
z_1_93 1
x_1_94 2.3016115980036557e+02
s_1_94 0
z_1_94 0
x_1_95 2.3314073604997247e+02
s_1_95 0
z_1_95 0
x_1_96 0
s_1_96 6.4491235453169793e-01
z_1_96 1
x_1_97 0
s_1_97 8.5001308209393756e-01
z_1_97 1
x_1_98 2.3295313850417733e+02
s_1_98 0
z_1_98 0
x_1_99 2.3241851351596415e+02
s_1_99 0
z_1_99 0
x_1_100 0
s_1_100 4.4405876874225214e-01
z_1_100 1
x_1_101 0
s_1_101 6.3735347887268290e-01
z_1_101 1
x_1_102 0
s_1_102 7.6622307935031131e-01
z_1_102 1
x_1_103 2.3223374492302537e+02
s_1_103 0
z_1_103 0
x_1_104 2.3037691007927060e+02
s_1_104 0
z_1_104 0
x_1_105 0
s_1_105 0.681833598006051
z_1_105 1
x_1_106 2.3303401354886591e+02
s_1_106 0
z_1_106 0
x_1_107 2.3034868549043313e+02
s_1_107 0
z_1_107 0
x_1_108 2.3245888356491923e+02
s_1_108 0
z_1_108 0
x_1_109 2.3269557276181877e+02
s_1_109 0
z_1_109 0
x_1_110 2.3288980880565941e+02
s_1_110 0
z_1_110 0
x_1_111 0
s_1_111 6.7515244157402776e-01
z_1_111 1
x_1_112 2.3302446717675775e+02
s_1_112 0
z_1_112 0
x_1_113 2.3180227126926184e+02
s_1_113 0
z_1_113 0
x_1_114 2.2643732422217727e+02
s_1_114 0
z_1_114 0
x_1_115 2.3287831800337881e+02
s_1_115 0
z_1_115 0
x_1_116 0
s_1_116 4.6881442859012168e-01
z_1_116 1
x_1_117 0
s_1_117 8.4965076309163123e-01
z_1_117 1
x_1_118 2.3041349436715245e+02
s_1_118 0
z_1_118 0
x_1_119 2.3222372970916331e+02
s_1_119 0
z_1_119 0
x_1_120 2.3093095888197422e+02
s_1_120 0
z_1_120 0
x_1_121 0
s_1_121 6.6988386990851723e-01
z_1_121 1
x_1_122 0
s_1_122 1.0487246226985008e+00
z_1_122 1
x_1_123 0
s_1_123 5.7061247061938047e-01
z_1_123 1
x_1_124 0
s_1_124 7.2706332974485122e-01
z_1_124 1
x_1_125 2.3110904381424189e+02
s_1_125 0
z_1_125 0
x_1_126 2.3248384212888777e+02
s_1_126 0
z_1_126 0
x_1_127 2.3213486637920141e+02
s_1_127 0
z_1_127 0
x_1_128 0
s_1_128 1.0315149536472745e+00
z_1_128 1
x_1_129 2.3067864028597251e+02
s_1_129 0
z_1_129 0
x_1_130 2.3212377966381609e+02
s_1_130 0
z_1_130 0
x_1_131 0
s_1_131 8.3893261861521751e-01
z_1_131 1
x_1_132 2.3052940377034247e+02
s_1_132 0
z_1_132 0
x_1_133 0
s_1_133 4.9185533763375133e-01
z_1_133 1
x_1_134 0
s_1_134 8.2986492780037224e-01
z_1_134 1
x_1_135 2.3190831993333995e+02
s_1_135 0
z_1_135 0
x_1_136 2.3335711866617203e+02
s_1_136 0
z_1_136 0
x_1_137 0
s_1_137 5.8616694208831177e-01
z_1_137 1
x_1_138 0
s_1_138 4.9070404481608421e-01
z_1_138 1
x_1_139 0
s_1_139 2.8462646405387204e-01
z_1_139 1
x_1_140 2.3355940096825361e+02
s_1_140 0
z_1_140 0
x_1_141 0
s_1_141 8.2108211982995272e-01
z_1_141 1
x_1_142 2.3075702002830803e+02
s_1_142 0
z_1_142 0
x_1_143 2.3099567142874002e+02
s_1_143 0
z_1_143 0
x_1_144 0
s_1_144 1.0177340979571454e+00
z_1_144 1
x_1_145 2.3301705717667937e+02
s_1_145 0
z_1_145 0
x_1_146 2.3184736435860395e+02
s_1_146 0
z_1_146 0
x_1_147 0
s_1_147 5.7969086209777743e-01
z_1_147 1
x_1_148 2.3369022695580497e+02
s_1_148 0
z_1_148 0
x_1_149 0
s_1_149 1.0406022203387693e+00
z_1_149 1
x_1_150 2.3366690341848880e+02
s_1_150 0
z_1_150 0
x_1_151 0
s_1_151 4.7985118196811527e-01
z_1_151 1
x_1_152 0
s_1_152 5.7561772083863616e-01
z_1_152 1
x_1_153 2.3120372138754465e+02
s_1_153 0
z_1_153 0
x_1_154 0
s_1_154 0.510391021729447
z_1_154 1
x_1_155 0
s_1_155 7.3267866810783744e-01
z_1_155 1
x_1_156 0
s_1_156 7.6761833415366709e-01
z_1_156 1
x_1_157 2.3186054621450603e+02
s_1_157 0
z_1_157 0
x_1_158 2.3053266315348446e+02
s_1_158 0
z_1_158 0
x_1_159 0
s_1_159 5.3354542463785037e-01
z_1_159 1
x_2_0 1.5737423387107626e+05
